(set-logic HORN)
(set-info :source |
    Benchmark: C_VC
    Output by Princess (http://www.philipp.ruemmer.org/princess.shtml)
|)
(set-info :status unknown)
(declare-fun inv_main12 (Int Int Int) Bool)
(declare-fun inv_main4 (Int Int Int) Bool)
(declare-fun inv_main7 (Int Int Int) Bool)
(assert (forall ((var0 Int)) (forall ((var1 Int)) (inv_main4 var0 var1 0 ) ) ) )
(assert (forall ((var0 Int)) (forall ((var1 Int)) (forall ((var2 Int)) (or (not (and (inv_main4 var0 var1 var2 ) (<= 0 var0 ) ) ) (inv_main7 var0 0 var2 ) ) ) ) ) )
(assert (forall ((var0 Int)) (forall ((var1 Int)) (forall ((var2 Int)) (or (not (and (inv_main7 var0 var1 var2 ) (<= 0 (+ (+ var0 (* (- 1) var1 ) ) (- 1) ) ) ) ) (inv_main7 var0 (+ var1 1 ) (+ var2 var1 ) ) ) ) ) ) )
(assert (forall ((var0 Int)) (forall ((var1 Int)) (forall ((var2 Int)) (or (not (and (inv_main7 var0 var1 var2 ) (and (not (<= 0 var2 ) ) (not (<= 0 (+ (+ var0 (* (- 1) var1 ) ) (- 1) ) ) ) ) ) ) (inv_main12 var0 var1 var2 ) ) ) ) ) )
(assert (forall ((var0 Int)) (forall ((var1 Int)) (forall ((var2 Int)) (not (inv_main12 var0 var1 var2 ) ) ) ) ) )
(check-sat)
